0 1
1 5
2 6
3 5
4 4
5 5
6 4
7 2
8 4
9 4
10 4
11 1
12 1
13 1
14 1
15 2
16 4
17 3
18 4
19 1
20 2
21 1
22 2
23 1
24 2
25 3
26 1
27 1
28 3
29 6
30 6
31 6
32 6
33 6
34 6
35 6
36 6

0 3
1 3
2 1
3 3
4 6
5 6
6 3
7 6
8 3
9 3
10 3
11 6
12 3
13 6
14 3
15 6
16 2
17 2
18 4
19 3
20 3
21 5
22 4
23 5
24 4
25 2
26 2
27 4
28 3
29 1
30 1
31 1
32 1
33 1
34 1
35 1
36 1

